493 102 1058 996 397 516 1129 452 0 535
499 306 0 70 234 1135 1200 153 401 430
1084 262 521 222 115 923 834 0 606 657
190 437 276 392 0 80 306 517 1037 616
198 943 70 722 960 854 0 289 470 296
289 1050 798 1079 604 960 457 84 702 141
365 517 985 273 684 760 40 1058 187 889
813 0 872 137 754 332 917 1088 998 1056
725 95 1137 936 511 701 604 296 860 1088
936 641 306 868 1056 607 752 120 426 985
118 615 1156 1137 204 234 678 670 32 355
872 352 209 1033 806 910 139 845 276 495
1029 893 616 491 677 411 1138 365 75 686
397 1148 913 772 298 633 998 701 985 521
75 192 806 125 854 847 383 950 147 0
676 1079 607 365 452 535 631 174 1148 728
0 960 430 246 1155 723 1058 573 637 791
957 183 677 430 1163 1037 466 860 798 69
895 725 367 670 80 491 516 623 551 1137
488 805 141 584 893 209 551 744 349 233
